NAME : rnd18_50.tsp.tsp.opt.tour
TYPE : TOUR
DIMENSION : 50
TOUR_SECTION
1
27
48
34
45
38
26
5
49
40
28
20
14
42
7
30
23
46
43
16
4
12
37
47
35
50
22
24
13
31
10
18
17
25
33
29
3
2
6
36
11
39
32
41
44
15
19
8
9
21
-1